Custom/8312021_24.param
$ LBS instance with n = 24, seed = 8312021
letting cards be [28,49,22,4,38,17,48,16,50,46,25,24,23,0,8,2,7,29,10,39,21,6,15,12]
